NAME: ts11
COMMENT : 11 testing locations
TYPE: TSP
DIMENSION: 11
EDGE_WEIGHT_TYPE: EUC_2D
NODE_COORD_SECTION
0 0.0 10.5
1 1.1 2.5
2 3.9 7.1
3 4.6 9.1
4 11.9 2.3
5 17.8 19.20
6 31.6 70.17
7 16.4 20.3
8 1.2 7.8
9 9.1 8.7
10 3.8 9.91
